Data path: /scratch/opt/lxu/CFLG/benchmarks/tree_B
Instance: treeB.150.22
Result path: /scratch/opt/lxu/CFLG/results/tree_B
Solver: Gurobi
Time limit: 7200
Formulation: LEFPAI
Cover: Small
julia --project=. src/main.jl /scratch/opt/lxu/CFLG/benchmarks/tree_B treeB.150.22 /scratch/opt/lxu/CFLG/results/tree_B Gurobi 7200 LEFPAI Small
The latest version of Julia in the `release` channel is 1.11.6+0.x64.linux.gnu. You currently have `1.11.4+0.x64.linux.gnu` installed. Run:

  juliaup update

in your terminal shell to install Julia 1.11.6+0.x64.linux.gnu and update the `release` channel to that version.
/scratch/opt/lxu/CFLG/benchmarks/tree_B Gurobi 7200.0 /scratch/opt/lxu/CFLG/results/tree_B treeB.150.22 LEFPAI Small
/scratch/opt/lxu/CFLG/benchmarks/tree_B/treeB.150.22

 read graph
data loaded


after absorb:107 150

max_piece:16
problem_graph/original graph: node: 107/150 edge: 128/171 dlt: 0.36968464877319224 break_avg_len: 1.9755023418817452 break_max_len: 5.729874035072884Vbar/V, Ebar/E(106, 107, 127, 128)
Set parameter TokenServer to value "solice01.zib.de"
Set parameter Threads to value 1
Set parameter OutputFlag to value 1
Gurobi Optimizer version 12.0.1 build v12.0.1rc0 (linux64 - "Debian GNU/Linux 12 (bookworm)")

CPU model: Intel(R) Xeon(R) Gold 5122 CPU @ 3.60GHz, instruction set [SSE2|AVX|AVX2|AVX512]
Thread count: 8 physical cores, 16 logical processors, using up to 1 threads

Non-default parameters:
Threads  1

Optimize a model with 235 rows, 384 columns and 640 nonzeros
Model fingerprint: 0xf496a0c7
Coefficient statistics:
  Matrix range     [1e+00, 1e+00]
  Objective range  [1e+00, 1e+00]
  Bounds range     [1e+00, 1e+00]
  RHS range        [1e+00, 1e+00]
Presolve removed 121 rows and 151 columns
Presolve time: 0.01s
Presolved: 114 rows, 233 columns, 368 nonzeros

Iteration    Objective       Primal Inf.    Dual Inf.      Time
       0    8.0000000e+01   2.800000e+01   0.000000e+00      0s
      52    5.5000000e+01   0.000000e+00   0.000000e+00      0s

Solved in 52 iterations and 0.02 seconds (0.00 work units)
Optimal objective  5.500000000e+01

User-callback calls 180, time in user-callback 0.01 sec
elapsed CPU time: 1.321019 seconds
Set parameter TokenServer to value "solice01.zib.de"
Set parameter Threads to value 1
Set parameter OutputFlag to value 1
Set parameter MIPGap to value 0.0001
Set parameter TimeLimit to value 7198.678981

 more cuts: false 0.36968464877319224 false
is_attach:trueformulation:LEFPAI127 1 1

 model loaded

Gurobi Optimizer version 12.0.1 build v12.0.1rc0 (linux64 - "Debian GNU/Linux 12 (bookworm)")

CPU model: Intel(R) Xeon(R) Gold 5122 CPU @ 3.60GHz, instruction set [SSE2|AVX|AVX2|AVX512]
Thread count: 8 physical cores, 16 logical processors, using up to 1 threads

Non-default parameters:
TimeLimit  7198.678981
Threads  1

Optimize a model with 1572 rows, 1218 columns and 2784 nonzeros
Model fingerprint: 0xfe2f1d9d
Model has 366 simple general constraints
  366 INDICATOR
Variable types: 363 continuous, 855 integer (855 binary)
Coefficient statistics:
  Matrix range     [8e-03, 1e+00]
  Objective range  [1e+00, 1e+00]
  Bounds range     [1e-01, 6e+00]
  RHS range        [1e-01, 5e+00]
  GenCon rhs range [9e-02, 5e+00]
  GenCon coe range [1e+00, 1e+00]
Presolve removed 1031 rows and 648 columns
Presolve time: 0.02s
Presolved: 541 rows, 570 columns, 1624 nonzeros
Variable types: 265 continuous, 305 integer (305 binary)
Found heuristic solution: objective 343.0000000

Root relaxation: objective 3.056205e+02, 621 iterations, 0.00 seconds (0.00 work units)

    Nodes    |    Current Node    |     Objective Bounds      |     Work
 Expl Unexpl |  Obj  Depth IntInf | Incumbent    BestBd   Gap | It/Node Time

     0     0  305.62054    0  136  343.00000  305.62054  10.9%     -    0s
H    0     0                     340.0000000  305.62054  10.1%     -    0s
     0     0  314.79094    0  160  340.00000  314.79094  7.41%     -    0s
H    0     0                     339.0000000  314.90350  7.11%     -    0s
     0     0  315.13036    0  162  339.00000  315.13036  7.04%     -    0s
     0     0  315.13685    0  162  339.00000  315.13685  7.04%     -    0s
     0     0  315.13808    0  162  339.00000  315.13808  7.04%     -    0s
     0     0  317.98054    0  168  339.00000  317.98054  6.20%     -    0s
     0     0  318.14889    0  168  339.00000  318.14889  6.15%     -    0s
     0     0  318.16961    0  158  339.00000  318.16961  6.14%     -    0s
     0     0  318.17242    0  160  339.00000  318.17242  6.14%     -    0s
     0     0  322.49070    0  127  339.00000  322.49070  4.87%     -    0s
     0     0  322.72321    0  127  339.00000  322.72321  4.80%     -    0s
     0     0  322.75013    0  130  339.00000  322.75013  4.79%     -    0s
     0     0  322.75013    0  130  339.00000  322.75013  4.79%     -    0s
     0     0  324.01131    0  132  339.00000  324.01131  4.42%     -    0s
     0     0  324.51131    0  131  339.00000  324.51131  4.27%     -    0s
     0     0  324.51131    0  125  339.00000  324.51131  4.27%     -    0s
     0     0  324.51131    0  128  339.00000  324.51131  4.27%     -    0s
     0     0  324.66667    0  119  339.00000  324.66667  4.23%     -    0s
     0     0  324.66667    0  119  339.00000  324.66667  4.23%     -    0s
     0     0  324.66667    0   73  339.00000  324.66667  4.23%     -    0s
H    0     0                     338.0000000  324.66667  3.94%     -    0s
     0     2  325.00000    0   73  338.00000  325.00000  3.85%     -    0s
H   26    26                     337.0000000  325.16667  3.51%  16.2    0s
H  110    97                     336.0000000  325.16667  3.22%   9.7    0s
H  137   115                     335.0000000  325.50000  2.84%  12.1    0s
H  218   171                     334.0000000  325.50000  2.54%  13.2    0s
H 1811   912                     333.0000000  328.02508  1.49%  21.9    2s
* 3512  1519              79     332.0000000  328.10073  1.17%  19.7    4s
  4017  1820  328.36582   25  115  332.00000  328.11865  1.17%  19.9    5s
  8017  3910  329.53691   33  103  332.00000  328.29851  1.11%  20.5   10s
 10203  4951  330.68384   42   73  332.00000  328.35580  1.10%  21.0   16s
 10283  5004  329.21694   25  129  332.00000  328.64418  1.01%  20.8   20s
 10383  5071  329.21694   25  107  332.00000  328.96447  0.91%  20.6   25s
 11200  5300  329.81153   40   74  332.00000  329.30731  0.81%  25.9   30s
 14683  5453  330.07143   38  103  332.00000  329.66667  0.70%  28.3   35s
 17840  5420  330.01115   36  154  332.00000  329.80450  0.66%  29.9   40s
 21155  5275  330.07374   41  112  332.00000  329.92580  0.62%  30.9   45s
 24563  4882     cutoff   46       332.00000  330.00079  0.60%  31.9   50s
 28118  5140  330.83333   42   72  332.00000  330.03945  0.59%  32.4   55s
 31863  5678  330.89710   38   86  332.00000  330.07990  0.58%  32.4   60s
 35423  6061  330.19428   39   96  332.00000  330.12027  0.57%  32.5   65s
 38761  6382  330.29327   44  102  332.00000  330.16338  0.55%  32.8   70s
 42080  6746  330.82998   47   84  332.00000  330.19797  0.54%  33.0   75s
 45260  7006  330.41671   44   98  332.00000  330.23511  0.53%  33.2   80s
 48663  7163  330.91207   42  110  332.00000  330.26931  0.52%  33.6   85s
 52331  7489     cutoff   42       332.00000  330.31216  0.51%  33.5   90s
 55566  7611  330.73635   39  111  332.00000  330.33852  0.50%  33.8   95s
 58355  7733     cutoff   44       332.00000  330.37224  0.49%  34.1  100s
 61842  7980     cutoff   48       332.00000  330.40733  0.48%  34.2  105s
 64757  7908  331.00000   38   75  332.00000  330.45465  0.47%  34.4  110s
 68269  7902  330.50000   42   57  332.00000  330.50000  0.45%  34.5  115s
 71581  7956  331.00000   40   56  332.00000  330.52679  0.44%  34.6  120s
 75100  8040     cutoff   58       332.00000  330.56588  0.43%  34.5  125s
 78501  7933     cutoff   50       332.00000  330.60122  0.42%  34.5  130s
 82105  7832  330.70766   51   78  332.00000  330.64894  0.41%  34.4  135s
 85425  7601  330.70413   47   95  332.00000  330.68929  0.39%  34.4  140s
 88612  7139  330.80000   45   90  332.00000  330.75000  0.38%  34.3  145s
 92201  6731  330.88333   47   74  332.00000  330.80000  0.36%  34.2  151s
 94820  6739  331.00000   49   37  332.00000  330.81818  0.36%  33.9  155s
 98919  6051  331.00000   42   59  332.00000  330.90909  0.33%  33.6  160s
 103120  4165     cutoff   50       332.00000  331.00000  0.30%  33.3  165s
 107146  2498  331.00000   52   51  332.00000  331.00000  0.30%  33.2  170s
 111194  1528     cutoff   52       332.00000  331.00000  0.30%  33.0  175s
 115128   886  331.00000   50   70  332.00000  331.00000  0.30%  32.8  180s
 119309   526     cutoff   41       332.00000  331.00000  0.30%  32.5  185s

Cutting planes:
  Learned: 3
  Gomory: 38
  Cover: 272
  Implied bound: 141
  Clique: 8
  MIR: 312
  Mixing: 23
  StrongCG: 7
  Flow cover: 925
  GUB cover: 16
  Inf proof: 16
  Zero half: 23
  RLT: 28
  Relax-and-lift: 24

Explored 123042 nodes (3981239 simplex iterations) in 189.58 seconds (141.98 work units)
Thread count was 1 (of 16 available processors)

Solution count 10: 332 333 334 ... 343

Optimal solution found (tolerance 1.00e-04)
Best objective 3.320000000000e+02, best bound 3.320000000000e+02, gap 0.0000%

User-callback calls 314197, time in user-callback 0.25 sec

 sepatime0 0 0
332.0
Stat(MathOptInterface.OPTIMAL, 332.0, 332.0, 0.0, 0.0, 1.321019, 189.576504945755, 123042, Main.CFLG.LEFPAI, "", #undef)
